500
750 750
1 525 434
2 523 366
3 522 755
4 522 844
5 522 685
6 522 629
7 521 976
8 521 191
9 518 57
10 518 681
11 518 6
12 517 57
13 517 292
14 517 8
15 516 18
16 513 84
17 512 871
18 512 886
19 511 280
20 511 72
21 511 590
22 510 212
23 509 949
24 508 775
25 508 428
26 508 150
27 506 534
28 505 35
29 502 846
30 501 422
31 500 22
32 500 517
33 500 850
34 498 473
35 497 876
36 496 723
37 495 545
38 495 620
39 494 759
40 494 241
41 492 909
42 492 210
43 491 593
44 491 834
45 491 527
46 490 255
47 490 25
48 489 727
49 488 502
50 488 632
51 486 697
52 485 947
53 484 726
54 484 826
55 484 560
56 483 499
57 482 646
58 481 342
59 481 966
60 481 583
61 480 232
62 478 784
63 477 7
64 477 287
65 477 426
66 476 604
67 476 942
68 476 739
69 475 520
70 475 183
71 474 494
72 473 517
73 472 605
74 471 446
75 470 176
76 470 380
77 469 1000
78 469 886
79 464 359
80 464 755
81 463 921
82 462 322
83 461 0
84 460 843
85 459 516
86 459 54
87 458 348
88 458 233
89 457 600
90 455 64
91 455 71
92 455 250
93 455 401
94 453 348
95 453 672
96 453 916
97 452 92
98 449 506
99 449 298
100 448 711
101 448 445
102 447 97
103 447 824
104 447 448
105 445 416
106 445 828
107 445 709
108 444 485
109 442 185
110 442 547
111 442 553
112 442 674
113 441 5
114 441 157
115 439 954
116 439 155
117 438 584
118 437 588
119 437 255
120 435 84
121 435 349
122 432 845
123 429 829
124 429 735
125 429 991
126 428 501
127 428 194
128 426 826
129 425 448
130 424 239
131 424 114
132 424 854
133 423 518
134 423 170
135 423 355
136 422 948
137 421 32
138 421 556
139 420 890
140 419 904
141 418 193
142 416 26
143 416 394
144 415 362
145 414 7
146 414 885
147 413 711
148 413 293
149 412 580
150 412 482
151 411 441
152 411 551
153 411 257
154 410 456
155 410 608
156 407 273
157 407 397
158 407 122
159 405 604
160 404 538
161 404 98
162 403 49
163 402 281
164 399 331
165 397 367
166 396 451
167 396 116
168 395 274
169 395 757
170 394 415
171 393 152
172 393 839
173 391 548
174 391 873
175 391 588
176 390 882
177 389 332
178 389 779
179 388 532
180 388 92
181 387 815
182 387 300
183 386 750
184 386 122
185 386 549
186 385 497
187 384 758
188 384 502
189 382 466
190 382 998
191 381 579
192 378 926
193 378 770
194 377 396
195 377 493
196 376 59
197 374 67
198 374 472
199 372 855
200 372 654
201 368 409
202 367 820
203 366 329
204 366 477
205 366 870
206 365 237
207 364 948
208 362 864
209 362 874
210 362 563
211 361 615
212 360 807
213 360 337
214 360 870
215 359 375
216 359 291
217 358 822
218 357 287
219 357 676
220 357 268
221 357 785
222 356 678
223 354 919
224 354 516
225 353 755
226 351 878
227 351 278
228 350 139
229 350 707
230 350 705
231 349 248
232 348 715
233 347 792
234 345 709
235 344 972
236 343 674
237 343 824
238 342 781
239 341 366
240 341 986
241 340 417
242 340 968
243 340 215
244 339 297
245 337 583
246 337 57
247 337 324
248 337 398
249 337 717
250 336 364
251 336 562
252 335 454
253 333 739
254 333 630
255 333 660
256 331 729
257 331 726
258 331 903
259 330 399
260 330 769
261 329 557
262 328 702
263 328 76
264 327 75
265 327 764
266 326 395
267 326 756
268 325 81
269 325 75
270 325 630
271 324 905
272 324 130
273 322 433
274 322 302
275 322 925
276 322 734
277 320 191
278 320 115
279 320 626
280 320 619
281 318 213
282 318 253
283 317 89
284 317 716
285 316 386
286 316 207
287 316 341
288 315 975
289 309 712
290 308 721
291 308 978
292 307 8
293 307 139
294 307 212
295 307 120
296 306 334
297 306 359
298 305 978
299 304 145
300 304 117
301 303 858
302 302 667
303 302 971
304 301 537
305 301 179
306 300 504
307 300 743
308 297 151
309 297 258
310 296 13
311 294 129
312 293 788
313 292 359
314 292 379
315 292 821
316 291 42
317 291 284
318 289 512
319 286 796
320 286 725
321 285 247
322 285 697
323 284 394
324 284 618
325 283 962
326 283 19
327 281 671
328 281 921
329 280 722
330 280 514
331 280 144
332 279 262
333 279 520
334 279 390
335 278 320
336 277 731
337 277 858
338 276 808
339 275 339
340 274 910
341 274 283
342 272 902
343 271 690
344 270 540
345 270 350
346 270 796
347 268 345
348 267 686
349 267 836
350 267 191
351 266 681
352 265 683
353 264 773
354 264 219
355 264 306
356 261 136
357 260 790
358 259 606
359 259 827
360 258 857
361 258 232
362 257 105
363 255 980
364 252 349
365 252 524
366 251 777
367 248 458
368 247 117
369 246 569
370 243 733
371 243 886
372 243 767
373 243 795
374 242 851
375 241 909
376 240 332
377 240 118
378 240 475
379 238 705
380 238 320
381 237 481
382 236 52
383 236 317
384 236 370
385 234 518
386 234 236
387 233 448
388 233 437
389 233 646
390 232 940
391 230 876
392 230 625
393 229 122
394 229 313
395 227 303
396 227 455
397 227 504
398 225 553
399 225 310
400 225 537
401 224 245
402 224 188
403 224 512
404 222 606
405 222 133
406 222 191
407 222 318
408 220 814
409 220 615
410 220 341
411 219 639
412 219 469
413 218 906
414 218 579
415 217 927
416 217 329
417 216 753
418 216 527
419 215 364
420 214 399
421 213 131
422 212 237
423 210 445
424 209 169
425 209 31
426 209 660
427 207 998
428 207 956
429 205 135
430 205 118
431 204 651
432 204 361
433 203 182
434 201 223
435 201 109
436 200 871
437 199 97
438 199 644
439 197 385
440 196 967
441 195 622
442 191 496
443 189 378
444 188 736
445 188 521
446 188 548
447 186 124
448 185 908
449 184 992
450 184 28
451 184 80
452 184 763
453 184 285
454 183 985
455 183 535
456 183 265
457 181 516
458 181 934
459 180 226
460 179 57
461 178 599
462 178 919
463 176 633
464 176 287
465 176 835
466 175 244
467 175 82
468 174 293
469 173 229
470 173 295
471 173 734
472 172 617
473 172 710
474 170 715
475 168 899
476 167 6
477 167 324
478 165 344
479 165 442
480 164 418
481 162 325
482 161 142
483 160 800
484 159 424
485 158 411
486 158 185
487 157 663
488 157 872
489 157 638
490 157 704
491 155 741
492 154 943
493 153 622
494 153 487
495 153 2
496 153 718
497 152 722
498 152 405
499 150 646
500 150 339
